100
    1   415   415
    2   152   152
    3   464   464
    4   460   460
    5   374   374
    6   434   434
    7   395   395
    8   374   374
    9   248   248
   10   379   379
   11   437   437
   12   407   407
   13   429   429
   14   463   463
   15    43    43
   16   145   145
   17   361   361
   18    44    44
   19   378   378
   20    64    64
   21   355   355
   22     9     9
   23   383   383
   24    57    57
   25   216   216
   26   205   205
   27   184   184
   28   472   472
   29    28    28
   30   313   313
   31   128   128
   32   426   426
   33   225   225
   34   488   488
   35   440   440
   36   432   432
   37   389   389
   38   212   212
   39    30    30
   40    39    39
   41    53    53
   42   275   275
   43   223   223
   44   281   281
   45   376   376
   46   426   426
   47   254   254
   48   458   458
   49   440   440
   50   123   123
   51   116   116
   52   384   384
   53   158   158
   54   342   342
   55   255   255
   56   121   121
   57   253   253
   58   252   252
   59   395   395
   60   158   158
   61   493   493
   62   183   183
   63   163   163
   64   134   134
   65   167   167
   66   470   470
   67   313   313
   68   421   421
   69    48    48
   70   301   301
   71   413   413
   72   139   139
   73   224   224
   74   355   355
   75   148   148
   76   457   457
   77   200   200
   78   176   176
   79   434   434
   80   317   317
   81   223   223
   82   410   410
   83   157   157
   84   171   171
   85     6     6
   86   475   475
   87   145   145
   88    33    33
   89   435   435
   90   120   120
   91   294   294
   92   241   241
   93   413   413
   94   406   406
   95   129   129
   96    98    98
   97   495   495
   98   494   494
   99   152   152
  100   171   171
22886
